30
261
5
45
24
42
94
51
0 6
0 7
0 8
0 9
0 10
0 11
0 13
0 16
0 18
0 20
0 25
0 28
1 3
1 5
1 6
1 8
1 9
1 13
1 14
1 16
1 18
1 20
1 22
1 23
1 25
1 27
1 28
2 3
2 4
2 7
2 8
2 9
2 10
2 12
2 13
2 14
2 15
2 16
2 18
2 19
2 21
2 22
2 23
2 27
3 4
3 5
3 6
3 7
3 8
3 9
3 11
3 12
3 13
3 15
3 17
3 20
3 21
3 23
3 24
3 25
3 26
3 27
3 28
3 29
4 5
4 6
4 8
4 9
4 11
4 12
4 13
4 14
4 21
4 23
4 24
4 25
4 28
4 29
5 7
5 9
5 10
5 12
5 13
5 14
5 16
5 17
5 21
5 23
5 24
5 25
5 26
5 27
5 28
6 7
6 8
6 11
6 12
6 13
6 17
6 20
6 22
6 23
6 24
6 25
6 28
6 29
7 8
7 9
7 10
7 11
7 12
7 13
7 14
7 16
7 17
7 19
7 22
7 23
7 24
7 25
7 28
7 29
8 12
8 13
8 15
8 16
8 18
8 20
8 22
8 23
8 24
8 25
8 26
8 28
8 29
9 11
9 12
9 13
9 14
9 15
9 16
9 18
9 20
9 22
9 27
9 29
10 14
10 15
10 16
10 17
10 18
10 20
10 21
10 25
10 26
10 27
10 28
11 12
11 14
11 16
11 17
11 18
11 19
11 21
11 23
11 24
11 26
11 29
12 13
12 14
12 15
12 16
12 17
12 18
12 23
12 26
12 27
12 28
12 29
13 15
13 16
13 18
13 19
13 20
13 21
13 23
13 24
13 25
13 27
13 28
14 15
14 16
14 17
14 18
14 20
14 21
14 22
14 23
14 24
14 25
14 27
14 28
15 16
15 18
15 20
15 21
15 22
15 23
15 25
15 27
15 28
16 17
16 18
16 20
16 22
16 23
16 26
17 18
17 19
17 20
17 22
17 23
17 24
17 25
17 27
17 28
18 19
18 20
18 22
18 24
18 26
18 27
18 29
19 21
19 28
20 23
20 24
20 25
20 27
21 22
21 25
21 26
22 24
22 25
22 26
22 27
22 29
23 24
23 25
23 29
24 25
24 26
24 27
24 28
24 29
25 26
25 28
25 29
26 28
26 29
27 28
29 16 0 15 23 1
10 4 24 26 18 9
5 6 12 19 27 11
14 20 7 17 21 22
8 2 28 13 25 3
